# Solution for model icep
# Objective value = 88
flowLmbda[0,0] 0
flowBeta[0,0,0,0] 15
flowBeta[0,1,0,0] 0
flowGamma[0,0,0,0] 15
flowGamma[0,1,0,0] 0
flowEpsilon[0,0,0,0] 15
flowEpsilon[0,1,0,0] 0
zetaSelect[0,0,0] 1
gammaSelect[0,0,0,0] 1
gammaSelect[0,1,0,0] 1
deltaSelect[0,0,0,0] 1
deltaSelect[0,1,0,0] 1
timeForResourceI[0] 88
totalTime 88
